NAME: gr4
TYPE: TSP
COMMENT: 4-city problem (Groetschel)
DIMENSION: 4
EDGE_WEIGHT_TYPE: EXPLICIT
EDGE_WEIGHT_FORMAT: LOWER_DIAG_ROW 
EDGE_WEIGHT_SECTION
0 20 24 32
20 0 18 34
24 18 0 16
32 34 16 0
EOF
